# Objective value = 5.6091068000000007e+04
ncow_C1 58
ncow_C2 0
ncow_C3 59
ncow_C4 123
ncow_C5 34
ncow_C6 0
ncow_C7 102
ncow_C8 0
ncow_C9 69
ncow_C10 1
ncow_C11 46
ncow_C12 0
excess_C1 4450
excess_C2 0
excess_C3 8
excess_C4 0
excess_C5 1590
excess_C6 80
excess_C7 10
excess_C8 200
excess_C9 0
excess_C10 2
excess_C11 0
excess_C12 32
short_C1 0
short_C2 4
short_C3 0
short_C4 0
short_C5 0
short_C6 0
short_C7 0
short_C8 0
short_C9 130
short_C10 0
short_C11 40
short_C12 0
